Minimize
 obj: 0 X_0_1
Subject To
 out_0:
  + 1 X_0_1 + 1 X_0_2 + 1 X_0_3 + 1 X_0_4
  = 1
 in_0:
  + 1 X_1_0 + 1 X_2_0 + 1 X_3_0 + 1 X_4_0
  = 1
 out_1:
  + 1 X_1_0 + 1 X_1_2 + 1 X_1_3 + 1 X_1_4
  = 1
 in_1:
  + 1 X_0_1 + 1 X_2_1 + 1 X_3_1 + 1 X_4_1
  = 1
 out_2:
  + 1 X_2_0 + 1 X_2_1 + 1 X_2_3 + 1 X_2_4
  = 1
 in_2:
  + 1 X_0_2 + 1 X_1_2 + 1 X_3_2 + 1 X_4_2
  = 1
 out_3:
  + 1 X_3_0 + 1 X_3_1 + 1 X_3_2 + 1 X_3_4
  = 1
 in_3:
  + 1 X_0_3 + 1 X_1_3 + 1 X_2_3 + 1 X_4_3
  = 1
 out_4:
  + 1 X_4_0 + 1 X_4_1 + 1 X_4_2 + 1 X_4_3
  = 1
 in_4:
  + 1 X_0_4 + 1 X_1_4 + 1 X_2_4 + 1 X_3_4
  = 1
 mtz_1_2:
  + 1 U1 - 1 U2 + 4 X_1_2
  <= 3
 mtz_1_3:
  + 1 U1 - 1 U3 + 4 X_1_3
  <= 3
 mtz_1_4:
  + 1 U1 - 1 U4 + 4 X_1_4
  <= 3
 mtz_2_1:
  + 1 U2 - 1 U1 + 4 X_2_1
  <= 3
 mtz_2_3:
  + 1 U2 - 1 U3 + 4 X_2_3
  <= 3
 mtz_2_4:
  + 1 U2 - 1 U4 + 4 X_2_4
  <= 3
 mtz_3_1:
  + 1 U3 - 1 U1 + 4 X_3_1
  <= 3
 mtz_3_2:
  + 1 U3 - 1 U2 + 4 X_3_2
  <= 3
 mtz_3_4:
  + 1 U3 - 1 U4 + 4 X_3_4
  <= 3
 mtz_4_1:
  + 1 U4 - 1 U1 + 4 X_4_1
  <= 3
 mtz_4_2:
  + 1 U4 - 1 U2 + 4 X_4_2
  <= 3
 mtz_4_3:
  + 1 U4 - 1 U3 + 4 X_4_3
  <= 3
 obj1:
  + 562 X_0_1 + 625 X_0_2 + 522 X_0_3 + 406 X_0_4 + 562 X_1_0 + 430 X_1_2 + 348 X_1_3 + 833 X_1_4
  + 625 X_2_0 + 430 X_2_1 + 736 X_2_3 + 656 X_2_4 + 522 X_3_0 + 348 X_3_1 + 736 X_3_2 + 907 X_3_4
  + 406 X_4_0 + 833 X_4_1 + 656 X_4_2 + 907 X_4_3
  <= 1
 obj2:
  + 419 X_0_1 + 566 X_0_2 + 669 X_0_3 + 133 X_0_4 + 419 X_1_0 + 708 X_1_2 + 324 X_1_3 + 547 X_1_4
  + 566 X_2_0 + 708 X_2_1 + 697 X_2_3 + 538 X_2_4 + 669 X_3_0 + 324 X_3_1 + 697 X_3_2 + 776 X_3_4
  + 133 X_4_0 + 547 X_4_1 + 538 X_4_2 + 776 X_4_3
  <= 2
 obj3:
  + 466 X_0_1 + 791 X_0_2 + 224 X_0_3 + 635 X_0_4 + 466 X_1_0 + 392 X_1_2 + 279 X_1_3 + 273 X_1_4
  + 791 X_2_0 + 392 X_2_1 + 654 X_2_3 + 157 X_2_4 + 224 X_3_0 + 279 X_3_1 + 654 X_3_2 + 512 X_3_4
  + 635 X_4_0 + 273 X_4_1 + 157 X_4_2 + 512 X_4_3
  <= 3
 obj4:
  + 384 X_0_1 + 600 X_0_2 + 743 X_0_3 + 377 X_0_4 + 384 X_1_0 + 492 X_1_2 + 591 X_1_3 + 353 X_1_4
  + 600 X_2_0 + 492 X_2_1 + 146 X_2_3 + 811 X_2_4 + 743 X_3_0 + 591 X_3_1 + 146 X_3_2 + 929 X_3_4
  + 377 X_4_0 + 353 X_4_1 + 811 X_4_2 + 929 X_4_3
  <= 4
 obj5:
  + 253 X_0_1 + 246 X_0_2 + 686 X_0_3 + 318 X_0_4 + 253 X_1_0 + 198 X_1_2 + 548 X_1_3 + 503 X_1_4
  + 246 X_2_0 + 198 X_2_1 + 746 X_2_3 + 562 X_2_4 + 686 X_3_0 + 548 X_3_1 + 746 X_3_2 + 680 X_3_4
  + 318 X_4_0 + 503 X_4_1 + 562 X_4_2 + 680 X_4_3
  <= 5
 obj6:
  + 903 X_0_1 + 814 X_0_2 + 266 X_0_3 + 236 X_0_4 + 903 X_1_0 + 854 X_1_2 + 889 X_1_3 + 839 X_1_4
  + 814 X_2_0 + 854 X_2_1 + 569 X_2_3 + 580 X_2_4 + 266 X_3_0 + 889 X_3_1 + 569 X_3_2 + 58 X_3_4
  + 236 X_4_0 + 839 X_4_1 + 580 X_4_2 + 58 X_4_3
  <= 6
 obj7:
  + 582 X_0_1 + 286 X_0_2 + 425 X_0_3 + 305 X_0_4 + 582 X_1_0 + 812 X_1_2 + 854 X_1_3 + 447 X_1_4
  + 286 X_2_0 + 812 X_2_1 + 186 X_2_3 + 405 X_2_4 + 425 X_3_0 + 854 X_3_1 + 186 X_3_2 + 410 X_3_4
  + 305 X_4_0 + 447 X_4_1 + 405 X_4_2 + 410 X_4_3
  <= 7
Bounds
 1 <= U1 <= 4
 1 <= U2 <= 4
 1 <= U3 <= 4
 1 <= U4 <= 4
Binary
 X_0_1
 X_0_2
 X_0_3
 X_0_4
 X_1_0
 X_1_2
 X_1_3
 X_1_4
 X_2_0
 X_2_1
 X_2_3
 X_2_4
 X_3_0
 X_3_1
 X_3_2
 X_3_4
 X_4_0
 X_4_1
 X_4_2
 X_4_3
End
